6378.1 6397.14 6453.62 6545.55 6669.36 6819.58 6988.5 7166 7339.72 7495.75 7620.06 7700.33 7728.1 7700.33 7620.06 7495.75 7339.72 7166 6988.5 6819.58 6669.36 6545.55 6453.62 6397.14 6378.1 6397.14 6453.62 6545.55 6669.36 6819.58 6988.5 7166 7339.72 7495.75 7620.06 7700.33 7728.1 7700.33 7620.06 7495.75 7339.72 7166 6988.5 6819.58 6669.36 6545.55 6453.62 6397.14 6378.1 6397.14 6453.62 6545.55 6669.36 6819.58 6988.5 7166 7339.72 7495.75 7620.06 7700.33 7728.1 7700.33 7620.06 7495.75 7339.72 7166 6988.5 6819.58 6669.36 6545.55 6453.62 6397.14 6378.1 